<?xml version = "1.0" encoding="UTF-8" standalone="yes"?>
<CPLEXSolution version="1.2">
 <header
   problemName="ILOG.CPLEX"
   solutionName="incumbent"
   solutionIndex="-1"
   objectiveValue="66240"
   solutionTypeValue="3"
   solutionTypeString="primal"
   solutionStatusValue="101"
   solutionStatusString="integer optimal solution"
   solutionMethodString="mip"
   primalFeasible="1"
   dualFeasible="1"
   MIPNodes="26"
   MIPIterations="1902"
   writeLevel="1"/>
 <quality
   epInt="1.0000000000000001e-05"
   epRHS="9.9999999999999995e-07"
   maxIntInfeas="0"
   maxPrimalInfeas="0"
   maxX="1"
   maxSlack="4"/>
 <linearConstraints>
  <constraint name="c1" index="0" slack="0"/>
  <constraint name="c3" index="1" slack="0"/>
  <constraint name="c5" index="2" slack="0"/>
  <constraint name="c7" index="3" slack="0"/>
  <constraint name="c9" index="4" slack="0"/>
  <constraint name="c11" index="5" slack="0"/>
  <constraint name="c13" index="6" slack="0"/>
  <constraint name="c15" index="7" slack="0"/>
  <constraint name="c17" index="8" slack="0"/>
  <constraint name="c19" index="9" slack="0"/>
  <constraint name="c21" index="10" slack="-1"/>
  <constraint name="c23" index="11" slack="0"/>
  <constraint name="c24" index="12" slack="0"/>
  <constraint name="c25" index="13" slack="0"/>
  <constraint name="c26" index="14" slack="0"/>
  <constraint name="c27" index="15" slack="0"/>
  <constraint name="c28" index="16" slack="0"/>
  <constraint name="c29" index="17" slack="0"/>
  <constraint name="c30" index="18" slack="0"/>
  <constraint name="c31" index="19" slack="0"/>
  <constraint name="c32" index="20" slack="0"/>
  <constraint name="c33" index="21" slack="0"/>
  <constraint name="c34" index="22" slack="0"/>
  <constraint name="c35" index="23" slack="0"/>
  <constraint name="c36" index="24" slack="0"/>
  <constraint name="c37" index="25" slack="0"/>
  <constraint name="c38" index="26" slack="0"/>
  <constraint name="c39" index="27" slack="0"/>
  <constraint name="c40" index="28" slack="0"/>
  <constraint name="c41" index="29" slack="0"/>
  <constraint name="c42" index="30" slack="0"/>
  <constraint name="c43" index="31" slack="0"/>
  <constraint name="c44" index="32" slack="0"/>
  <constraint name="c45" index="33" slack="0"/>
  <constraint name="c46" index="34" slack="0"/>
  <constraint name="c47" index="35" slack="0"/>
  <constraint name="c48" index="36" slack="0"/>
  <constraint name="c49" index="37" slack="0"/>
  <constraint name="c50" index="38" slack="0"/>
  <constraint name="c51" index="39" slack="0"/>
  <constraint name="c52" index="40" slack="0"/>
  <constraint name="c53" index="41" slack="0"/>
  <constraint name="c54" index="42" slack="0"/>
  <constraint name="c55" index="43" slack="0"/>
  <constraint name="c56" index="44" slack="0"/>
  <constraint name="c57" index="45" slack="-1"/>
  <constraint name="c58" index="46" slack="0"/>
  <constraint name="c59" index="47" slack="0"/>
  <constraint name="c60" index="48" slack="-1"/>
  <constraint name="c61" index="49" slack="0"/>
  <constraint name="c62" index="50" slack="0"/>
  <constraint name="c63" index="51" slack="-1"/>
  <constraint name="c64" index="52" slack="0"/>
  <constraint name="c65" index="53" slack="0"/>
  <constraint name="c66" index="54" slack="0"/>
  <constraint name="c67" index="55" slack="0"/>
  <constraint name="c68" index="56" slack="0"/>
  <constraint name="c69" index="57" slack="0"/>
  <constraint name="c70" index="58" slack="-1"/>
  <constraint name="c71" index="59" slack="0"/>
  <constraint name="c72" index="60" slack="0"/>
  <constraint name="c73" index="61" slack="0"/>
  <constraint name="c74" index="62" slack="0"/>
  <constraint name="c75" index="63" slack="0"/>
  <constraint name="c76" index="64" slack="0"/>
  <constraint name="c77" index="65" slack="0"/>
  <constraint name="c78" index="66" slack="0"/>
  <constraint name="c79" index="67" slack="-2"/>
  <constraint name="c80" index="68" slack="0"/>
  <constraint name="c81" index="69" slack="0"/>
  <constraint name="c82" index="70" slack="0"/>
  <constraint name="c83" index="71" slack="-1"/>
  <constraint name="c84" index="72" slack="0"/>
  <constraint name="c85" index="73" slack="0"/>
  <constraint name="c86" index="74" slack="0"/>
  <constraint name="c87" index="75" slack="0"/>
  <constraint name="c88" index="76" slack="-4"/>
  <constraint name="c89" index="77" slack="0"/>
  <constraint name="c90" index="78" slack="0"/>
  <constraint name="c91" index="79" slack="0"/>
  <constraint name="c92" index="80" slack="0"/>
  <constraint name="c93" index="81" slack="0"/>
  <constraint name="c94" index="82" slack="-1"/>
  <constraint name="c95" index="83" slack="0"/>
  <constraint name="c96" index="84" slack="0"/>
  <constraint name="c97" index="85" slack="0"/>
  <constraint name="c98" index="86" slack="0"/>
  <constraint name="c99" index="87" slack="0"/>
  <constraint name="c100" index="88" slack="-1"/>
  <constraint name="c101" index="89" slack="-1"/>
  <constraint name="c102" index="90" slack="0"/>
  <constraint name="c103" index="91" slack="0"/>
  <constraint name="c104" index="92" slack="0"/>
  <constraint name="c105" index="93" slack="-1"/>
  <constraint name="c106" index="94" slack="0"/>
  <constraint name="c107" index="95" slack="0"/>
  <constraint name="c108" index="96" slack="0"/>
  <constraint name="c109" index="97" slack="0"/>
  <constraint name="c110" index="98" slack="0"/>
  <constraint name="c111" index="99" slack="0"/>
  <constraint name="c112" index="100" slack="0"/>
  <constraint name="c113" index="101" slack="-1"/>
  <constraint name="c114" index="102" slack="0"/>
  <constraint name="c115" index="103" slack="0"/>
  <constraint name="c116" index="104" slack="0"/>
  <constraint name="c117" index="105" slack="0"/>
  <constraint name="c118" index="106" slack="0"/>
  <constraint name="c119" index="107" slack="0"/>
  <constraint name="c120" index="108" slack="0"/>
  <constraint name="c121" index="109" slack="0"/>
  <constraint name="c122" index="110" slack="0"/>
  <constraint name="c123" index="111" slack="0"/>
  <constraint name="c125" index="112" slack="0"/>
  <constraint name="c127" index="113" slack="0"/>
  <constraint name="c129" index="114" slack="0"/>
  <constraint name="c131" index="115" slack="0"/>
  <constraint name="c133" index="116" slack="0"/>
  <constraint name="c135" index="117" slack="0"/>
  <constraint name="c137" index="118" slack="0"/>
  <constraint name="c139" index="119" slack="0"/>
  <constraint name="c141" index="120" slack="0"/>
  <constraint name="c143" index="121" slack="0"/>
  <constraint name="c145" index="122" slack="0"/>
  <constraint name="c147" index="123" slack="0"/>
  <constraint name="c149" index="124" slack="0"/>
  <constraint name="c151" index="125" slack="0"/>
  <constraint name="c153" index="126" slack="0"/>
  <constraint name="c155" index="127" slack="0"/>
  <constraint name="c157" index="128" slack="0"/>
  <constraint name="c159" index="129" slack="0"/>
  <constraint name="c161" index="130" slack="0"/>
  <constraint name="c162" index="131" slack="0"/>
  <constraint name="c163" index="132" slack="0"/>
  <constraint name="c164" index="133" slack="0"/>
  <constraint name="c165" index="134" slack="-1"/>
  <constraint name="c166" index="135" slack="0"/>
  <constraint name="c167" index="136" slack="0"/>
  <constraint name="c168" index="137" slack="0"/>
  <constraint name="c169" index="138" slack="0"/>
  <constraint name="c170" index="139" slack="0"/>
  <constraint name="c171" index="140" slack="0"/>
  <constraint name="c172" index="141" slack="0"/>
  <constraint name="c173" index="142" slack="0"/>
  <constraint name="c174" index="143" slack="0"/>
  <constraint name="c175" index="144" slack="0"/>
  <constraint name="c176" index="145" slack="-2"/>
  <constraint name="c177" index="146" slack="0"/>
  <constraint name="c178" index="147" slack="0"/>
  <constraint name="c179" index="148" slack="0"/>
  <constraint name="c180" index="149" slack="0"/>
  <constraint name="c181" index="150" slack="0"/>
  <constraint name="c182" index="151" slack="0"/>
  <constraint name="c183" index="152" slack="0"/>
  <constraint name="c184" index="153" slack="0"/>
  <constraint name="c185" index="154" slack="0"/>
  <constraint name="c186" index="155" slack="0"/>
  <constraint name="c187" index="156" slack="0"/>
  <constraint name="c188" index="157" slack="0"/>
 </linearConstraints>
 <variables>
  <variable name="x1" index="0" value="0"/>
  <variable name="x1" index="1" value="1"/>
  <variable name="x3" index="2" value="1"/>
  <variable name="x5" index="3" value="0"/>
  <variable name="x7" index="4" value="0"/>
  <variable name="x9" index="5" value="0"/>
  <variable name="x11" index="6" value="0"/>
  <variable name="x13" index="7" value="0"/>
  <variable name="x15" index="8" value="1"/>
  <variable name="x17" index="9" value="0"/>
  <variable name="x19" index="10" value="1"/>
  <variable name="x21" index="11" value="1"/>
  <variable name="x23" index="12" value="1"/>
  <variable name="x25" index="13" value="0"/>
  <variable name="x27" index="14" value="0"/>
  <variable name="x29" index="15" value="0"/>
  <variable name="x31" index="16" value="0"/>
  <variable name="x33" index="17" value="0"/>
  <variable name="x35" index="18" value="0"/>
  <variable name="x37" index="19" value="1"/>
  <variable name="x39" index="20" value="0"/>
  <variable name="x41" index="21" value="0"/>
  <variable name="x43" index="22" value="0"/>
  <variable name="x45" index="23" value="0"/>
  <variable name="x47" index="24" value="0"/>
  <variable name="x49" index="25" value="1"/>
  <variable name="x51" index="26" value="0"/>
  <variable name="x53" index="27" value="0"/>
  <variable name="x55" index="28" value="0"/>
  <variable name="x57" index="29" value="0"/>
  <variable name="x59" index="30" value="0"/>
  <variable name="x61" index="31" value="0"/>
  <variable name="x63" index="32" value="0"/>
  <variable name="x65" index="33" value="0"/>
  <variable name="x67" index="34" value="0"/>
  <variable name="x69" index="35" value="0"/>
  <variable name="x71" index="36" value="0"/>
  <variable name="x73" index="37" value="0"/>
  <variable name="x75" index="38" value="0"/>
  <variable name="x77" index="39" value="0"/>
  <variable name="x79" index="40" value="0"/>
  <variable name="x81" index="41" value="0"/>
  <variable name="x83" index="42" value="0"/>
  <variable name="x85" index="43" value="0"/>
  <variable name="x87" index="44" value="0"/>
  <variable name="x89" index="45" value="0"/>
  <variable name="x91" index="46" value="0"/>
  <variable name="x93" index="47" value="0"/>
  <variable name="x95" index="48" value="0"/>
  <variable name="x97" index="49" value="0"/>
  <variable name="x99" index="50" value="0"/>
  <variable name="x101" index="51" value="0"/>
  <variable name="x103" index="52" value="0"/>
  <variable name="x105" index="53" value="0"/>
  <variable name="x107" index="54" value="0"/>
  <variable name="x109" index="55" value="0"/>
  <variable name="x111" index="56" value="0"/>
  <variable name="x112" index="57" value="0"/>
  <variable name="x114" index="58" value="0"/>
  <variable name="x116" index="59" value="0"/>
  <variable name="x118" index="60" value="0"/>
  <variable name="x120" index="61" value="0"/>
  <variable name="x122" index="62" value="1"/>
  <variable name="x124" index="63" value="1"/>
  <variable name="x126" index="64" value="0"/>
  <variable name="x128" index="65" value="0"/>
  <variable name="x130" index="66" value="1"/>
  <variable name="x131" index="67" value="0"/>
  <variable name="x133" index="68" value="1"/>
  <variable name="x135" index="69" value="0"/>
  <variable name="x137" index="70" value="0"/>
  <variable name="x139" index="71" value="0"/>
  <variable name="x141" index="72" value="0"/>
  <variable name="x143" index="73" value="0"/>
  <variable name="x145" index="74" value="0"/>
  <variable name="x147" index="75" value="0"/>
  <variable name="x149" index="76" value="0"/>
  <variable name="x150" index="77" value="0"/>
  <variable name="x152" index="78" value="0"/>
  <variable name="x154" index="79" value="0"/>
  <variable name="x156" index="80" value="1"/>
  <variable name="x158" index="81" value="0"/>
  <variable name="x160" index="82" value="0"/>
  <variable name="x162" index="83" value="0"/>
  <variable name="x164" index="84" value="0"/>
  <variable name="x166" index="85" value="0"/>
  <variable name="x167" index="86" value="1"/>
  <variable name="x169" index="87" value="0"/>
  <variable name="x171" index="88" value="0"/>
  <variable name="x173" index="89" value="0"/>
  <variable name="x175" index="90" value="0"/>
  <variable name="x177" index="91" value="1"/>
  <variable name="x179" index="92" value="0"/>
  <variable name="x181" index="93" value="0"/>
  <variable name="x183" index="94" value="0"/>
  <variable name="x185" index="95" value="0"/>
  <variable name="x186" index="96" value="0"/>
  <variable name="x188" index="97" value="0"/>
  <variable name="x190" index="98" value="0"/>
  <variable name="x192" index="99" value="1"/>
  <variable name="x194" index="100" value="1"/>
  <variable name="x196" index="101" value="0"/>
  <variable name="x198" index="102" value="0"/>
  <variable name="x200" index="103" value="0"/>
  <variable name="x202" index="104" value="0"/>
  <variable name="x204" index="105" value="0"/>
  <variable name="x205" index="106" value="1"/>
  <variable name="x207" index="107" value="0"/>
  <variable name="x209" index="108" value="0"/>
  <variable name="x211" index="109" value="0"/>
  <variable name="x213" index="110" value="0"/>
  <variable name="x215" index="111" value="0"/>
  <variable name="x217" index="112" value="0"/>
  <variable name="x218" index="113" value="0"/>
  <variable name="x220" index="114" value="0"/>
  <variable name="x222" index="115" value="1"/>
  <variable name="x224" index="116" value="0"/>
  <variable name="x226" index="117" value="1"/>
  <variable name="x228" index="118" value="1"/>
  <variable name="x230" index="119" value="0"/>
  <variable name="x232" index="120" value="0"/>
  <variable name="x234" index="121" value="0"/>
  <variable name="x236" index="122" value="0"/>
  <variable name="x237" index="123" value="0"/>
  <variable name="x239" index="124" value="1"/>
  <variable name="x241" index="125" value="0"/>
  <variable name="x243" index="126" value="1"/>
  <variable name="x245" index="127" value="1"/>
  <variable name="x247" index="128" value="0"/>
  <variable name="x249" index="129" value="0"/>
  <variable name="x251" index="130" value="0"/>
  <variable name="x253" index="131" value="0"/>
  <variable name="x255" index="132" value="0"/>
  <variable name="x256" index="133" value="0"/>
  <variable name="x258" index="134" value="0"/>
  <variable name="x260" index="135" value="0"/>
  <variable name="x262" index="136" value="0"/>
  <variable name="x264" index="137" value="0"/>
  <variable name="x266" index="138" value="0"/>
  <variable name="x268" index="139" value="0"/>
  <variable name="x270" index="140" value="0"/>
  <variable name="x272" index="141" value="0"/>
  <variable name="x274" index="142" value="0"/>
  <variable name="x275" index="143" value="0"/>
  <variable name="x277" index="144" value="1"/>
  <variable name="x279" index="145" value="0"/>
  <variable name="x281" index="146" value="0"/>
  <variable name="x283" index="147" value="0"/>
  <variable name="x285" index="148" value="0"/>
  <variable name="x287" index="149" value="0"/>
  <variable name="x289" index="150" value="0"/>
  <variable name="x291" index="151" value="0"/>
  <variable name="x293" index="152" value="0"/>
  <variable name="x294" index="153" value="1"/>
  <variable name="x296" index="154" value="1"/>
  <variable name="x298" index="155" value="0"/>
  <variable name="x300" index="156" value="0"/>
  <variable name="x302" index="157" value="0"/>
  <variable name="x304" index="158" value="0"/>
  <variable name="x306" index="159" value="0"/>
  <variable name="x308" index="160" value="0"/>
  <variable name="x310" index="161" value="0"/>
  <variable name="x312" index="162" value="0"/>
  <variable name="x313" index="163" value="0"/>
  <variable name="x315" index="164" value="1"/>
  <variable name="x317" index="165" value="0"/>
  <variable name="x319" index="166" value="0"/>
  <variable name="x321" index="167" value="0"/>
  <variable name="x323" index="168" value="0"/>
  <variable name="x325" index="169" value="0"/>
  <variable name="x327" index="170" value="0"/>
  <variable name="x329" index="171" value="1"/>
  <variable name="x331" index="172" value="1"/>
  <variable name="x332" index="173" value="0"/>
  <variable name="x334" index="174" value="1"/>
  <variable name="x336" index="175" value="0"/>
  <variable name="x338" index="176" value="0"/>
  <variable name="x340" index="177" value="0"/>
  <variable name="x342" index="178" value="0"/>
  <variable name="x344" index="179" value="0"/>
  <variable name="x346" index="180" value="0"/>
  <variable name="x348" index="181" value="0"/>
  <variable name="x350" index="182" value="0"/>
  <variable name="x351" index="183" value="0"/>
  <variable name="x353" index="184" value="1"/>
  <variable name="x355" index="185" value="0"/>
  <variable name="x357" index="186" value="0"/>
  <variable name="x359" index="187" value="0"/>
  <variable name="x361" index="188" value="0"/>
  <variable name="x363" index="189" value="0"/>
  <variable name="x365" index="190" value="1"/>
  <variable name="x367" index="191" value="0"/>
  <variable name="x369" index="192" value="0"/>
  <variable name="x370" index="193" value="1"/>
  <variable name="x372" index="194" value="0"/>
  <variable name="x374" index="195" value="0"/>
  <variable name="x376" index="196" value="0"/>
  <variable name="x378" index="197" value="1"/>
  <variable name="x380" index="198" value="0"/>
  <variable name="x382" index="199" value="1"/>
  <variable name="x384" index="200" value="0"/>
  <variable name="x386" index="201" value="0"/>
  <variable name="x388" index="202" value="1"/>
  <variable name="x389" index="203" value="0"/>
  <variable name="x391" index="204" value="0"/>
  <variable name="x393" index="205" value="0"/>
  <variable name="x395" index="206" value="0"/>
  <variable name="x397" index="207" value="0"/>
  <variable name="x399" index="208" value="0"/>
  <variable name="x401" index="209" value="0"/>
  <variable name="x403" index="210" value="0"/>
  <variable name="x405" index="211" value="0"/>
  <variable name="x407" index="212" value="0"/>
  <variable name="x408" index="213" value="0"/>
  <variable name="x410" index="214" value="0"/>
  <variable name="x412" index="215" value="0"/>
  <variable name="x414" index="216" value="0"/>
  <variable name="x416" index="217" value="0"/>
  <variable name="x418" index="218" value="0"/>
  <variable name="x420" index="219" value="0"/>
  <variable name="x422" index="220" value="1"/>
  <variable name="x424" index="221" value="0"/>
  <variable name="x426" index="222" value="0"/>
  <variable name="x427" index="223" value="0"/>
  <variable name="x429" index="224" value="0"/>
  <variable name="x431" index="225" value="0"/>
  <variable name="x433" index="226" value="0"/>
  <variable name="x435" index="227" value="1"/>
  <variable name="x437" index="228" value="0"/>
  <variable name="x439" index="229" value="0"/>
  <variable name="x441" index="230" value="0"/>
  <variable name="x443" index="231" value="0"/>
  <variable name="x445" index="232" value="1"/>
  <variable name="x446" index="233" value="1"/>
  <variable name="x448" index="234" value="0"/>
  <variable name="x450" index="235" value="0"/>
  <variable name="x452" index="236" value="1"/>
  <variable name="x454" index="237" value="0"/>
  <variable name="x456" index="238" value="0"/>
  <variable name="x458" index="239" value="0"/>
  <variable name="x460" index="240" value="0"/>
  <variable name="x462" index="241" value="0"/>
  <variable name="x464" index="242" value="0"/>
  <variable name="x465" index="243" value="0"/>
  <variable name="x467" index="244" value="1"/>
  <variable name="x469" index="245" value="1"/>
  <variable name="x471" index="246" value="0"/>
  <variable name="x473" index="247" value="0"/>
  <variable name="x475" index="248" value="0"/>
  <variable name="x477" index="249" value="0"/>
  <variable name="x479" index="250" value="0"/>
  <variable name="x481" index="251" value="0"/>
  <variable name="x483" index="252" value="0"/>
  <variable name="x484" index="253" value="0"/>
  <variable name="x486" index="254" value="0"/>
  <variable name="x488" index="255" value="0"/>
  <variable name="x490" index="256" value="0"/>
  <variable name="x492" index="257" value="0"/>
  <variable name="x494" index="258" value="0"/>
  <variable name="x496" index="259" value="0"/>
  <variable name="x498" index="260" value="0"/>
  <variable name="x500" index="261" value="0"/>
  <variable name="x502" index="262" value="0"/>
  <variable name="x503" index="263" value="0"/>
  <variable name="x505" index="264" value="0"/>
  <variable name="x507" index="265" value="0"/>
  <variable name="x509" index="266" value="0"/>
  <variable name="x511" index="267" value="0"/>
  <variable name="x513" index="268" value="0"/>
  <variable name="x515" index="269" value="0"/>
  <variable name="x517" index="270" value="0"/>
  <variable name="x519" index="271" value="0"/>
  <variable name="x521" index="272" value="0"/>
  <variable name="x522" index="273" value="0"/>
  <variable name="x524" index="274" value="0"/>
  <variable name="x526" index="275" value="0"/>
  <variable name="x528" index="276" value="0"/>
  <variable name="x530" index="277" value="0"/>
  <variable name="x532" index="278" value="0"/>
  <variable name="x533" index="279" value="0"/>
  <variable name="x535" index="280" value="0"/>
  <variable name="x537" index="281" value="0"/>
  <variable name="x539" index="282" value="0"/>
  <variable name="x541" index="283" value="0"/>
  <variable name="x542" index="284" value="0"/>
  <variable name="x544" index="285" value="0"/>
  <variable name="x546" index="286" value="0"/>
  <variable name="x548" index="287" value="0"/>
  <variable name="x550" index="288" value="0"/>
  <variable name="x551" index="289" value="0"/>
  <variable name="x553" index="290" value="0"/>
  <variable name="x555" index="291" value="1"/>
  <variable name="x557" index="292" value="0"/>
  <variable name="x558" index="293" value="0"/>
  <variable name="x560" index="294" value="0"/>
  <variable name="x562" index="295" value="0"/>
  <variable name="x564" index="296" value="0"/>
  <variable name="x566" index="297" value="0"/>
  <variable name="x568" index="298" value="0"/>
  <variable name="x570" index="299" value="0"/>
  <variable name="x571" index="300" value="0"/>
  <variable name="x572" index="301" value="0"/>
  <variable name="x574" index="302" value="0"/>
  <variable name="x576" index="303" value="0"/>
  <variable name="x577" index="304" value="1"/>
  <variable name="x579" index="305" value="0"/>
  <variable name="x581" index="306" value="0"/>
  <variable name="x583" index="307" value="0"/>
  <variable name="x585" index="308" value="0"/>
  <variable name="x587" index="309" value="0"/>
  <variable name="x588" index="310" value="0"/>
  <variable name="x590" index="311" value="0"/>
  <variable name="x591" index="312" value="0"/>
 </variables>
</CPLEXSolution>
